6989,6999
282,292
625,635
1949,1959
4825,4835
3455,3465
3477,3487
2564,2574
816,826
9040,9050
2102,2112
3570,3580
5568,5578
2217,2227
6333,6343
3820,3830
7779,7789
2390,2400
5475,5485
1927,1937
1342,1352
3531,3541
5929,5939
5362,5372
1306,1316
4744,4754
6714,6724
7678,7688
7223,7233
9613,9623
6733,6743
4388,4398
4746,4756
7935,7945
529,539
5390,5400
1190,1200
1402,1412
428,438
6189,6199
4872,4882
537,547
9084,9094
5255,5265
2314,2324
3293,3303
7854,7864
208,218
8138,8148
6084,6094
9712,9722
6214,6224
9182,9192
3729,3739
381,391
3717,3727
6731,6741
3898,3908
586,596
3123,3133
7960,7970
4146,4156
8790,8800
4509,4519
4262,4272
5470,5480
2160,2170
9608,9618
1725,1735
4895,4905
2883,2893
1582,1592
5987,5997
9053,9063
3963,3973

19873
14708
16830
19741
15948
15924
14702
14972
16221
